proyfinal/src/viki/013/andrea/andrea-localstore/experimentInOfficeAgust.take6/worker_10/324f68f2-709e-45e6-a6ee-d6f45911b4bd.als.cnf.out
Reading from standard input... Use '--help' for help.
============================[ Problem Statistics ]=============================
|                                                                             |
|  Number of variables:         87638                                         |
|  Number of clauses:          161767                                         |
|  Parse time:                   0.03 s                                       |
|                                                                             |
============================[ Search Statistics ]==============================
| Conflicts |          ORIGINAL         |          LEARNT          | Progress |
|           |    Vars  Clauses Literals |    Limit  Clauses Lit/Cl |          |
===============================================================================
|       100 |   61996   103756   259316 |    38043      100     10 | 29.259 % |
|       250 |   61976   103678   259126 |    41848      248     12 | 29.282 % |
|       475 |   61976   103678   259126 |    46033      473     53 | 29.282 % |
|       812 |   61976   103678   259126 |    50636      810     80 | 29.282 % |
|      1318 |   61976   103678   259126 |    55700     1316     79 | 29.282 % |
|      2077 |   61976   103678   259126 |    61270     2075     85 | 29.282 % |
|      3216 |   61976   103678   259126 |    67397     3214     90 | 29.282 % |
===============================================================================
restarts              : 18
conflicts             : 3538           (7618 /sec)
decisions             : 12504          (0.00 % random) (26922 /sec)
propagations          : 5289260        (11388247 /sec)
conflict literals     : 310288         (52.22 % deleted)
Memory used           : 20.81 MB
CPU time              : 0.464449 s

UNSATISFIABLE
